p edge 320 875
c 4571
e 0 67 1 0
e 0 190 1 1
e 0 220 35 3
e 1 67 1 4
e 1 103 1 5
e 1 209 36 7
e 2 145 1 9
e 2 69 6 10
e 2 309 1 11
e 3 29 2 13
e 4 283 1 15
e 4 95 1 16
e 4 34 1 17
e 5 265 8 19
e 5 94 3 20
e 5 147 1 21
e 6 98 3 23
e 6 86 30 24
e 6 69 9 25
e 6 198 46 26
e 6 87 25 27
e 6 57 12 28
e 6 119 34 32
e 6 62 20 35
e 6 122 9 36
e 6 108 42 37
e 6 167 12 38
e 6 162 31 40
e 6 177 23 41
e 7 48 1 42
e 8 107 1 44
e 8 215 1 45
e 8 154 2 48
e 8 306 1 50
e 9 169 2 51
e 9 94 27 54
e 9 294 1 55
e 10 43 1 56
e 10 310 19 59
e 11 118 1 60
e 11 277 1 61
e 11 106 30 63
e 12 138 1 64
e 12 31 5 66
e 12 96 1 67
e 13 221 1 70
e 13 218 3 71
e 13 77 2 73
e 13 119 3 74
e 14 114 3 78
e 15 299 1 79
e 15 276 1 80
e 15 81 17 82
e 16 298 1 83
e 16 165 1 84
e 16 162 18 86
e 17 207 1 88
e 17 234 1 89
e 17 183 1 90
e 18 242 1 92
e 18 159 1 94
e 19 83 1 96
e 19 236 1 99
e 21 132 1 104
e 21 291 1 105
e 21 69 19 106
e 21 182 1 107
e 22 56 1 108
e 22 42 1 109
e 22 172 29 111
e 23 220 10 112
e 23 267 1 113
e 23 307 1 116
e 24 99 1 117
e 24 173 1 118
e 24 209 4 120
e 25 72 1 121
e 25 128 1 124
e 25 270 1 125
e 26 76 1 126
e 26 142 1 127
e 26 253 37 128
e 27 34 2 132
e 27 171 1 134
e 28 105 1 136
e 28 42 1 137
e 28 109 1 139
e 28 248 1 141
e 29 280 2 142
e 29 288 2 144
e 30 188 1 145
e 30 104 5 148
e 30 123 3 149
e 31 60 1 151
e 31 78 1 152
e 31 81 13 153
e 31 91 1 154
e 32 133 1 156
e 32 36 1 157
e 32 287 1 158
e 33 117 2 159
e 33 141 1 160
e 33 53 7 161
e 33 144 2 163
e 34 160 2 164
e 34 244 2 166
e 35 187 1 169
e 35 299 1 170
e 36 159 1 171
e 36 177 37 174
e 37 102 1 175
e 38 280 1 179
e 39 82 1 180
e 39 40 1 182
e 40 65 1 184
e 40 227 1 185
e 41 163 1 187
e 41 56 1 188
e 41 197 1 190
e 41 236 2 191
e 42 88 1 194
e 43 188 1 197
e 44 305 1 199
e 44 72 1 201
e 45 155 1 202
e 46 108 35 205
e 46 199 1 206
e 46 264 1 207
e 47 272 1 209
e 47 73 1 210
e 48 50 4 211
e 48 170 1 214
e 48 189 2 215
e 49 219 1 218
e 49 246 1 219
e 50 315 4 221
e 50 137 1 222
e 50 220 23 224
e 51 202 24 225
e 51 247 1 226
e 51 310 37 227
e 52 263 1 228
e 52 228 42 230
e 53 136 22 232
e 53 119 14 233
e 53 230 34 234
e 53 124 41 239
e 53 266 47 240
e 53 162 18 242
e 53 220 47 243
e 53 106 29 244
e 54 131 1 247
e 54 272 1 248
e 54 162 14 249
e 54 193 2 250
e 54 195 1 251
e 55 59 1 254
e 55 150 1 255
e 55 205 1 256
e 55 253 46 257
e 55 277 1 258
e 56 124 2 261
e 57 82 1 264
e 58 80 1 267
e 60 192 1 275
e 60 76 1 276
e 61 281 3 278
e 61 240 1 280
e 62 94 3 282
e 62 69 12 283
e 62 276 1 285
e 63 67 1 287
e 63 178 1 288
e 63 186 1 289
e 63 226 2 290
e 64 179 2 291
e 64 282 1 292
e 64 194 1 294
e 65 144 1 295
e 65 138 1 298
e 66 105 2 300
e 66 264 1 303
e 67 190 1 307
e 67 196 1 308
e 68 205 1 310
e 68 77 1 311
e 68 75 46 312
e 69 108 32 317
e 69 146 7 318
e 69 319 47 319
e 69 160 9 321
e 69 246 5 322
e 69 253 29 323
e 69 249 15 325
e 69 94 8 326
e 69 119 37 327
e 69 162 16 328
e 70 256 2 329
e 70 203 2 331
e 70 230 4 332
e 71 295 1 333
e 71 160 2 334
e 71 162 29 335
e 71 233 1 336
e 72 255 1 337
e 72 112 1 339
e 72 286 1 340
e 73 164 2 343
e 74 279 1 344
e 74 141 2 345
e 74 225 2 347
e 75 264 21 350
e 75 156 37 352
e 75 195 4 353
e 75 108 16 354
e 75 119 9 355
e 75 265 21 356
e 75 292 5 357
e 75 104 44 358
e 75 146 38 360
e 75 172 11 361
e 75 209 2 362
e 76 275 2 363
e 77 114 2 364
e 77 262 1 366
e 78 268 2 367
e 78 119 34 372
e 78 253 33 373
e 78 241 49 374
e 78 79 15 377
e 78 92 42 378
e 78 172 40 379
e 78 209 25 380
e 78 265 48 381
e 79 160 2 382
e 79 282 1 383
e 80 89 1 386
e 80 95 1 387
e 81 109 1 389
e 81 94 28 396
e 81 139 36 397
e 81 209 20 398
e 82 174 1 399
e 82 314 1 400
e 83 254 2 402
e 83 92 2 403
e 83 251 2 405
e 84 202 15 407
e 84 106 21 408
e 84 108 26 409
e 84 153 5 410
e 84 233 1 411
e 85 165 1 412
e 85 102 1 413
e 86 122 1 416
e 86 102 2 417
e 86 106 8 418
e 87 279 1 420
e 88 299 1 422
e 89 193 2 426
e 89 214 2 427
e 90 282 1 428
e 90 94 4 430
e 91 170 1 431
e 91 164 2 433
e 92 106 41 435
e 92 172 49 436
e 93 167 2 437
e 93 235 1 438
e 93 138 2 439
e 93 228 2 440
e 94 265 29 447
e 94 252 28 450
e 94 310 1 451
e 95 284 2 452
e 95 255 2 454
e 96 268 1 455
e 96 202 9 456
e 97 208 1 458
e 97 179 1 459
e 98 140 1 462
e 98 155 2 464
e 99 239 1 466
e 99 284 1 467
e 100 107 1 470
e 100 309 2 472
e 101 271 5 473
e 101 166 3 476
e 101 174 1 477
e 101 276 1 478
e 101 295 1 479
e 102 127 1 482
e 103 305 1 483
e 103 192 1 484
e 103 203 2 485
e 104 177 7 486
e 105 132 1 487
e 106 262 30 489
e 106 214 33 490
e 106 213 1 491
e 106 250 48 492
e 106 201 44 493
e 106 243 42 494
e 106 239 7 495
e 106 220 42 497
e 106 228 26 498
e 106 265 47 500
e 107 265 29 504
e 107 316 1 505
e 108 157 26 507
e 108 310 46 508
e 108 273 3 509
e 108 152 21 512
e 108 143 21 514
e 108 162 11 515
e 108 220 29 516
e 109 126 1 517
e 110 149 2 519
e 110 151 1 520
e 110 121 1 521
e 110 288 1 522
e 111 244 1 523
e 111 162 40 524
e 111 119 14 525
e 112 215 1 527
e 112 313 1 530
e 114 269 1 534
e 114 223 1 536
e 115 259 1 537
e 115 199 2 538
e 115 148 1 539
e 115 181 1 540
e 116 144 2 544
e 116 169 1 545
e 117 147 1 548
e 118 189 2 549
e 118 263 2 550
e 119 298 7 551
e 119 153 39 553
e 119 158 16 554
e 119 167 32 557
e 119 293 18 558
e 119 172 31 559
e 119 228 30 561
e 120 297 1 562
e 120 187 1 563
e 120 255 1 564
e 122 228 3 566
e 123 252 1 569
e 124 162 8 572
e 125 192 1 574
e 125 129 1 575
e 125 253 44 576
e 126 187 1 579
e 127 151 1 581
e 127 152 1 582
e 128 307 2 584
e 128 165 1 586
e 129 271 1 587
e 129 254 2 588
e 130 133 1 589
e 130 258 1 590
e 130 172 8 591
e 131 298 2 593
e 131 318 2 594
e 132 134 2 595
e 132 232 1 596
e 132 282 1 597
e 133 313 1 598
e 133 169 1 599
e 135 201 1 604
e 135 177 2 606
e 136 149 1 608
e 137 256 1 611
e 137 289 1 612
e 139 266 2 614
e 139 297 1 615
e 140 172 33 618
e 140 296 1 619
e 141 256 1 621
e 141 217 1 622
e 141 302 1 623
e 142 184 1 625
e 143 190 1 627
e 143 220 15 628
e 143 316 2 630
e 145 293 1 632
e 145 171 1 633
e 145 303 1 634
e 146 310 9 636
e 146 319 5 637
e 148 283 1 639
e 149 267 1 641
e 149 279 1 643
e 150 269 1 645
e 151 161 1 647
e 151 303 1 648
e 152 200 1 649
e 153 221 1 650
e 154 318 1 652
e 155 171 1 655
e 156 301 1 657
e 157 265 28 658
e 158 228 22 661
e 158 209 26 662
e 158 310 39 663
e 159 192 2 664
e 161 225 2 667
e 162 253 12 668
e 162 254 44 669
e 162 209 18 671
e 162 265 18 672
e 162 267 48 673
e 163 210 1 674
e 165 277 1 676
e 165 229 1 677
e 166 307 2 679
e 167 298 1 680
e 168 287 2 682
e 170 255 1 683
e 170 172 4 684
e 172 253 8 687
e 172 265 12 688
e 172 202 11 690
e 172 228 27 691
e 172 177 7 692
e 173 196 1 693
e 173 291 1 694
e 174 263 2 696
e 175 203 1 697
e 175 305 1 698
e 176 227 1 700
e 177 236 35 701
e 177 270 44 703
e 177 202 36 705
e 177 265 8 706
e 179 256 2 708
e 180 253 3 711
e 182 300 5 712
e 183 226 1 713
e 185 245 1 717
e 186 202 23 718
e 188 189 1 719
e 191 317 1 723
e 191 213 2 724
e 191 202 38 725
e 193 240 1 729
e 193 257 1 730
e 194 199 1 731
e 195 253 29 734
e 196 314 1 735
e 196 305 1 736
e 198 304 1 740
e 199 248 1 741
e 201 298 2 744
e 202 268 37 746
e 202 253 13 749
e 202 220 6 750
e 202 279 27 751
e 202 300 37 752
e 207 269 1 758
e 208 295 1 760
e 208 222 1 761
e 208 214 2 763
e 209 310 38 766
e 210 281 2 768
e 210 318 2 769
e 211 281 1 770
e 212 263 1 773
e 212 296 1 774
e 213 317 1 775
e 213 287 2 776
e 215 290 1 777
e 216 279 1 779
e 217 269 1 782
e 217 242 1 783
e 219 297 2 787
e 219 312 1 788
e 220 287 10 790
e 220 308 17 791
e 221 311 1 796
e 224 309 1 800
e 226 261 1 801
e 227 266 4 802
e 227 317 2 803
e 228 246 16 804
e 228 278 38 805
e 228 265 31 806
e 228 296 32 807
e 228 240 21 808
e 228 253 10 809
e 229 247 1 810
e 229 314 1 811
e 230 253 18 813
e 230 292 3 814
e 236 243 1 818
e 236 261 2 819
e 238 278 1 824
e 238 304 1 825
e 240 310 1 826
e 242 314 1 827
e 243 307 1 828
e 244 319 1 829
e 245 247 1 830
e 248 251 1 831
e 248 268 1 832
e 250 306 1 835
e 251 315 1 837
e 253 254 32 838
e 253 265 18 839
e 253 274 19 840
e 253 310 8 841
e 256 272 1 843
e 257 278 1 844
e 259 262 1 845
e 259 281 3 846
e 261 306 2 850
e 265 266 26 851
e 265 310 4 853
e 266 290 1 854
e 274 280 1 859
e 275 288 2 860
e 282 315 1 862
e 286 297 1 863
e 289 292 1 865
e 289 315 1 866
e 294 304 1 869
e 294 308 2 870
e 299 313 1 872
e 304 316 1 873
e 310 311 1 874
